(set-logic QF_SLIA)
(declare-fun var7 () String)
(declare-fun var4 () String)
(declare-fun var17 () String)
(declare-fun var35 () Int)
(declare-fun var24 () Int)
(declare-fun var22 () Int)
(declare-fun var37 () Int)
(declare-fun var28 () Int)
(declare-fun var19 () String)
(declare-fun var16 () String)
(declare-fun var5 () String)
(declare-fun var20 () Int)
(declare-fun var1 () String)
(declare-fun var6 () String)
(declare-fun var29 () Int)
(declare-fun var3 () String)
(declare-fun var32 () Int)
(declare-fun var34 () Int)
(declare-fun var8 () String)
(declare-fun var14 () String)
(declare-fun var21 () Int)
(declare-fun var12 () String)
(declare-fun var13 () String)
(declare-fun var11 () String)
(declare-fun var18 () String)
(assert (> (str.indexof var8 var17 var21) (str.indexof (str.at var11 var21) (str.at var3 var29) (str.indexof var18 var11 var29))))
(assert (>= (str.indexof var1 var8 var32) (str.len var8)))
(assert (str.suffixof var14 var11))
(assert (> (str.len var7) (str.len var3)))
(assert (str.contains var4 var4))
(assert (str.prefixof (str.replace (str.at var13 var34) (str.at "_<m$fAm~=sgXqRT!j0>-T-<O@#EhmFi\\w:{+8Vo=%DkmZ#!q=m[odn`O4Ptpi7(2QfnT3P\\4u~;3Oq+h_2`}h';yANYuSc07?t$i" var24) (str.replace var1 var5 var17)) (str.replace (str.replace var5 var1 var7) (str.at var1 var35) (str.replace "YP7|tT:K$F!6/_^TWBvN*/CA=Iwaq0weuA8z=EvNIKcPU;|{RyF8Yuf?>5@7Eluu3:#0:pPhU{g*D>`}nU4RGX=_;&2&,dPn52Yf" var12 var16))))
(assert (>= var37 var20))
(assert (str.contains (str.at (str.replace var8 "j^i,G-YG0f@SCK,)KO@qKLS!wf,Cf0>.Qi!KA9oK[2<EHCGF62+HKiC;d2wtF-S*f-c8ibS24N8fIJN4c#SDIPj[{)ku<$7Fx,D}" var18) (str.len var14)) (str.replace var17 var18 "I?$3N?\\cb""v9M[Kve&UjpO!K,lb,dwxf5=eBBc)J]\\-pEDIE2K4J?_`xhH'vUY:C0p^V?BTrDj_m5c\\C.\\NeVf_1K]4OVvI&rkp\\")))
(assert (str.suffixof (str.at var11 var35) (str.replace var19 var6 "z837s(<5Hc/q+F""!4*ND1~ReS\\)*~Wb?P/8h6y=dB]e.h'-%!?w8m7q{bGKx@s\\XHln""ViN3EVLS,PZky~&~9=_k['HJwkP_/(Yz")))
(assert (> var28 var22))
(check-sat)
